100 475
1 6 1
1 9 1
1 12 1
1 22 1
1 77 1
2 6 1
2 7 1
2 8 1
2 10 1
2 15 1
2 17 1
2 19 1
2 39 1
2 48 1
2 68 1
2 89 1
2 99 1
3 6 1
3 7 1
3 8 1
3 9 1
3 10 1
3 12 1
3 22 1
3 23 1
3 38 1
3 50 1
3 51 1
3 70 1
3 73 1
3 84 1
4 6 1
4 7 1
4 10 1
4 11 1
4 14 1
4 17 1
4 18 1
4 21 1
4 24 1
4 25 1
4 26 1
4 28 1
4 33 1
4 34 1
4 35 1
4 39 1
4 47 1
4 51 1
4 54 1
4 61 1
4 66 1
4 69 1
4 84 1
4 88 1
5 6 1
5 7 1
5 8 1
5 9 1
5 10 1
5 13 1
5 32 1
5 37 1
5 41 1
5 72 1
5 83 1
6 7 1
6 8 1
6 9 1
6 10 1
6 11 1
6 12 1
6 13 1
6 16 1
6 18 1
6 19 1
6 20 1
6 21 1
6 27 1
6 28 1
6 30 1
6 31 1
6 32 1
6 33 1
6 34 1
6 35 1
6 39 1
6 40 1
6 42 1
6 43 1
6 47 1
6 50 1
6 54 1
6 57 1
6 58 1
6 59 1
6 61 1
6 65 1
6 66 1
6 69 1
6 74 1
6 78 1
6 80 1
6 81 1
6 93 1
6 95 1
7 8 1
7 11 1
7 12 1
7 14 1
7 15 1
7 16 1
7 23 1
7 26 1
7 27 1
7 28 1
7 31 1
7 32 1
7 33 1
7 40 1
7 42 1
7 43 1
7 44 1
7 45 1
7 55 1
7 58 1
7 66 1
7 67 1
7 70 1
7 76 1
7 83 1
7 86 1
7 91 1
7 94 1
7 95 1
7 97 1
8 9 1
8 11 1
8 14 1
8 15 1
8 18 1
8 19 1
8 22 1
8 27 1
8 28 1
8 30 1
8 31 1
8 37 1
8 44 1
8 46 1
8 48 1
8 49 1
8 50 1
8 58 1
8 60 1
8 64 1
9 13 1
9 14 1
9 23 1
9 30 1
9 41 1
9 57 1
9 71 1
9 83 1
9 87 1
9 90 1
10 11 1
10 12 1
10 13 1
10 15 1
10 17 1
10 20 1
10 21 1
10 26 1
10 43 1
10 64 1
10 73 1
10 76 1
11 25 1
11 27 1
11 36 1
11 64 1
11 78 1
11 80 1
11 87 1
12 13 1
12 14 1
12 15 1
12 16 1
12 18 1
12 19 1
12 20 1
12 24 1
12 25 1
12 26 1
12 30 1
12 31 1
12 35 1
12 38 1
12 41 1
12 43 1
12 49 1
12 52 1
12 54 1
12 55 1
12 63 1
12 72 1
12 79 1
12 80 1
12 83 1
12 86 1
12 98 1
12 100 1
13 16 1
13 20 1
13 32 1
13 53 1
13 62 1
13 64 1
13 67 1
13 72 1
13 77 1
13 88 1
14 17 1
14 18 1
14 21 1
14 23 1
14 24 1
14 25 1
14 29 1
14 36 1
14 41 1
14 46 1
14 53 1
14 60 1
14 85 1
14 87 1
14 89 1
14 91 1
14 95 1
15 16 1
15 20 1
15 22 1
15 27 1
15 28 1
15 42 1
15 45 1
15 54 1
15 61 1
15 68 1
15 75 1
15 77 1
15 89 1
15 95 1
15 99 1
15 100 1
16 17 1
16 23 1
16 35 1
16 36 1
16 37 1
16 38 1
16 44 1
16 45 1
16 47 1
16 50 1
16 53 1
16 58 1
16 63 1
16 96 1
17 29 1
17 33 1
17 34 1
17 39 1
17 42 1
17 48 1
17 51 1
17 57 1
17 71 1
17 99 1
18 19 1
18 45 1
18 55 1
18 59 1
18 62 1
18 75 1
18 76 1
18 87 1
19 21 1
19 26 1
19 41 1
19 59 1
19 64 1
19 65 1
19 70 1
19 77 1
20 25 1
20 47 1
21 22 1
21 52 1
21 68 1
21 76 1
21 78 1
22 24 1
22 29 1
22 32 1
22 40 1
22 63 1
23 24 1
23 31 1
23 34 1
23 42 1
23 44 1
23 71 1
24 33 1
24 34 1
24 40 1
24 46 1
24 52 1
24 72 1
24 93 1
24 96 1
24 99 1
25 90 1
26 29 1
26 30 1
26 49 1
26 56 1
26 65 1
26 72 1
27 29 1
27 46 1
28 86 1
29 49 1
29 56 1
29 80 1
29 84 1
30 37 1
30 53 1
30 61 1
30 93 1
31 36 1
31 37 1
31 56 1
31 68 1
31 70 1
31 73 1
31 74 1
31 91 1
31 98 1
32 35 1
32 46 1
32 51 1
32 62 1
32 82 1
32 85 1
33 44 1
33 48 1
33 60 1
33 77 1
33 81 1
33 82 1
33 100 1
34 38 1
34 45 1
34 67 1
34 97 1
35 36 1
36 81 1
36 84 1
37 38 1
37 39 1
37 40 1
37 43 1
37 48 1
37 54 1
37 61 1
37 66 1
37 79 1
37 89 1
38 47 1
38 57 1
38 71 1
38 92 1
39 79 1
40 50 1
40 75 1
41 81 1
41 88 1
42 51 1
42 53 1
42 60 1
42 63 1
42 76 1
42 82 1
43 65 1
43 84 1
43 90 1
43 92 1
43 96 1
43 97 1
44 52 1
44 56 1
44 67 1
45 55 1
45 56 1
45 98 1
46 49 1
46 57 1
46 91 1
47 55 1
47 69 1
48 52 1
48 65 1
48 79 1
48 94 1
48 97 1
49 59 1
49 85 1
50 74 1
50 90 1
50 96 1
51 60 1
52 59 1
52 85 1
52 90 1
52 92 1
53 58 1
53 71 1
53 86 1
53 88 1
54 62 1
54 73 1
54 82 1
54 85 1
54 88 1
54 96 1
56 63 1
57 62 1
57 74 1
57 75 1
58 73 1
59 66 1
59 75 1
59 93 1
60 68 1
60 69 1
61 78 1
61 92 1
62 69 1
63 70 1
63 91 1
63 93 1
64 67 1
64 74 1
64 94 1
64 98 1
66 78 1
66 86 1
66 100 1
69 79 1
70 82 1
72 80 1
74 81 1
74 92 1
74 94 1
75 83 1
77 87 1
80 95 1
81 94 1
81 97 1
85 100 1
87 89 1
96 98 1
96 99 1
